# Solution for model CVRP
# Objective value = 1.1354733160131879e+05
C0 0
C1 0
C2 0
C3 0
C4 0
C5 0
C6 0
C7 0
C8 0
C9 0
C10 0
C11 0
C12 0
C13 0
C14 1
C15 0
C16 0
C17 0
C18 0
C19 0
C20 0
C21 0
C22 0
C23 0
C24 0
C25 0
C26 1
C27 0
C28 0
C29 0
C30 1
C31 0
C32 0
C33 0
C34 0
C35 0
C36 0
C37 0
C38 0
C39 0
C40 1
C41 0
C42 0
C43 0
C44 0
C45 0
C46 0
C47 0
C48 0
C49 1
C50 0
C51 15
C52 0
C53 0
C54 13
C55 15
C56 12
C57 8
C58 0
C59 5
C60 0
C61 0
C62 3
C63 4
C64 2
C65 1
